NAME : mr24
COMMENT : 24-city problem (DISC)
TYPE : TSP
DIMENSION : 24
EDGE_WEIGHT_TYPE : EUC_2D
NODE_COORD_SECTION
1 97 98
2 70 90
3 100 95
4 23 65
5 37 62
6 74 23
7 100 49
8 32 81
9 14 85
10 39 54
11 33 76
12 37 50
13 71 86
14 91 62
15 54 87
16 25 24
17 68 41
18 57 63
19 55 15
20 90 13
21 85 42
22 31 56
23 64 95
24 69 41
EOF
